[2026-03-24T13:36:43.435Z] Pipeline "set_vm-3-t1_vm-3-t1_s002_g003" → 2026_03_24_13_36_43_set_vm-3-t1_vm-3-t1_s002_g003_max.sol
Set parameter Username
Set parameter LicenseID to value 2796068
Set parameter LogFile to value "gurobi.log"
Using license file /opt/gurobi/gurobi.lic
Academic license - for non-commercial use only - expires 2027-03-23

Gurobi Optimizer version 13.0.1 build v13.0.1rc0 (linux64 - "Ubuntu 24.04.4 LTS")
Copyright (c) 2026, Gurobi Optimization, LLC

Warning: Duplicate section found (read 'binary') - Is a variable name equal to an LP file format keyword?
Warning: Duplicate section found (read 'binary') - Is a variable name equal to an LP file format keyword?
Warning: Duplicate section found (read 'binary') - Is a variable name equal to an LP file format keyword?
Warning: Duplicate section found (read 'binary') - Is a variable name equal to an LP file format keyword?
Warning: Duplicate section found (read 'binary') - Is a variable name equal to an LP file format keyword?
Warning: Duplicate section found (read 'binary') - Is a variable name equal to an LP file format keyword?
Warning: Duplicate section found (read 'binary') - Is a variable name equal to an LP file format keyword?
Warning: Duplicate section found (read 'binary') - Is a variable name equal to an LP file format keyword?
Warning: Duplicate section found (read 'binary') - Is a variable name equal to an LP file format keyword?
Warning: Duplicate section found (read 'binary') - Is a variable name equal to an LP file format keyword?
Warning: Further warnings of this type will be omitted.
Read LP format model from file /root/bgw/data/uploads/2026_03_24_13_36_43_set_vm-3-t1_vm-3-t1_s002_g003_max.lp
Reading time = 0.00 seconds
: 704 rows, 126 columns, 2033 nonzeros

Using Gurobi shared library /opt/gurobi1301/linux64/lib/libgurobi.so.13.0.1

CPU model: AMD EPYC-Genoa Processor, instruction set [SSE2|AVX|AVX2|AVX512]
Thread count: 16 physical cores, 16 logical processors, using up to 16 threads

Optimize a model with 704 rows, 126 columns and 2033 nonzeros (Max)
Model fingerprint: 0x444ca5b3
Model has 20 linear objective coefficients
Variable types: 32 continuous, 94 integer (94 binary)
Coefficient statistics:
  Matrix range     [1e+00, 1e+01]
  Objective range  [1e+00, 1e+00]
  Bounds range     [1e+00, 1e+00]
  RHS range        [1e+00, 1e+01]

Found heuristic solution: objective 20.0000000
Presolve removed 232 rows and 41 columns
Presolve time: 0.00s
Presolved: 472 rows, 85 columns, 1470 nonzeros
Variable types: 0 continuous, 85 integer (79 binary)
Found heuristic solution: objective 34.0000000

Root relaxation: objective 1.050000e+02, 48 iterations, 0.00 seconds (0.00 work units)

    Nodes    |    Current Node    |     Objective Bounds      |     Work
 Expl Unexpl |  Obj  Depth IntInf | Incumbent    BestBd   Gap | It/Node Time

     0     0  105.00000    0   14   34.00000  105.00000   209%     -    0s
H    0     0                      42.0000000  105.00000   150%     -    0s
H    0     0                      47.0000000  105.00000   123%     -    0s
H    0     0                      53.0000000  105.00000  98.1%     -    0s
     0     0  105.00000    0   19   53.00000  105.00000  98.1%     -    0s
     0     0   98.00000    0   15   53.00000   98.00000  84.9%     -    0s
     0     0   98.00000    0   14   53.00000   98.00000  84.9%     -    0s
H    0     0                      55.0000000   98.00000  78.2%     -    0s
     0     0   98.00000    0   21   55.00000   98.00000  78.2%     -    0s
     0     0   98.00000    0   20   55.00000   98.00000  78.2%     -    0s
     0     0   98.00000    0   14   55.00000   98.00000  78.2%     -    0s
     0     0   98.00000    0   19   55.00000   98.00000  78.2%     -    0s
     0     0   98.00000    0   14   55.00000   98.00000  78.2%     -    0s
     0     0   97.30000    0   19   55.00000   97.30000  76.9%     -    0s
     0     0   97.30000    0   14   55.00000   97.30000  76.9%     -    0s
     0     0   94.60000    0   20   55.00000   94.60000  72.0%     -    0s
     0     0   94.30000    0   19   55.00000   94.30000  71.5%     -    0s
     0     0   94.30000    0   17   55.00000   94.30000  71.5%     -    0s
     0     0   93.70000    0   17   55.00000   93.70000  70.4%     -    0s
     0     0   93.70000    0   17   55.00000   93.70000  70.4%     -    0s
     0     2   93.70000    0   14   55.00000   93.70000  70.4%     -    0s

Cutting planes:
  Cover: 11
  Inf proof: 17
  Zero half: 1

Explored 2290 nodes (34700 simplex iterations) in 0.22 seconds (0.20 work units)
Thread count was 16 (of 16 available processors)

Solution count 6: 55 53 47 ... 20

Optimal solution found (tolerance 1.00e-04)
Best objective 5.500000000000e+01, best bound 5.500000000000e+01, gap 0.0000%

Wrote result file '/root/bgw/data/results/2026_03_24_13_36_43_set_vm-3-t1_vm-3-t1_s002_g003_max.sol'

